
Gurobi 7.5.2 (linux64) logging started Sat Jul  7 16:00:02 2018

Changed value of parameter LogFile to result/ilp/simNo_1-n_100-m_40-s_4-minVAF_0.05-cov_10000-k_2-fn_0.05-fp_0.0001-na_0.15.ILP.gurobiSolverLog
   Prev: gurobi.log  Default: 
Changed value of parameter TimeLimit to 86400.0
   Prev: 1e+100  Min: 0.0  Max: 1e+100  Default: 1e+100
Optimize a model with 639293 rows, 10765 columns and 1940420 nonzeros
Variable types: 0 continuous, 10765 integer (10765 binary)
Coefficient statistics:
  Matrix range     [4e-04, 4e+00]
  Objective range  [1e-01, 9e+00]
  Bounds range     [1e+00, 1e+00]
  RHS range        [2e-01, 2e+00]
Found heuristic solution: objective -19403.94094
Presolve removed 127275 rows and 989 columns (presolve time = 5s) ...
Presolve removed 127819 rows and 989 columns (presolve time = 13s) ...
Presolve removed 182219 rows and 1533 columns (presolve time = 15s) ...
Presolve removed 182219 rows and 1533 columns
Presolve time: 18.81s
Presolved: 457074 rows, 9232 columns, 1374017 nonzeros
Variable types: 0 continuous, 9232 integer (9232 binary)
Presolved: 9232 rows, 466306 columns, 1383249 nonzeros

Presolve removed 9232 rows and 466306 columns

Root simplex log...

Iteration    Objective       Primal Inf.    Dual Inf.      Time
       0    7.1850514e+00   0.000000e+00   9.248800e+04     23s
   14577   -1.7421033e+02   0.000000e+00   1.025707e+05     25s
   25551   -2.2302427e+02   0.000000e+00   0.000000e+00     28s
   25551   -2.2302427e+02   0.000000e+00   0.000000e+00     29s

Root relaxation: objective -2.230243e+02, 25551 iterations, 8.96 seconds
Total elapsed time = 30.13s
Total elapsed time = 73.14s
Total elapsed time = 92.13s
Total elapsed time = 128.59s

    Nodes    |    Current Node    |     Objective Bounds      |     Work
 Expl Unexpl |  Obj  Depth IntInf | Incumbent    BestBd   Gap | It/Node Time

     0     0 -223.02427    0 1431 -19403.941 -223.02427  98.9%     -  132s
H    0     0                    -1282.230623 -223.02427  82.6%     -  136s
H    0     0                    -306.6406458 -223.02427  27.3%     -  137s
H    0     0                    -291.9184509 -223.02427  23.6%     -  138s
     0     0 -229.28121    0 1448 -291.91845 -229.28121  21.5%     -  155s
H    0     0                    -283.0851339 -229.28121  19.0%     -  166s
     0     0 -229.28121    0 1449 -283.08513 -229.28121  19.0%     -  169s
     0     0 -233.84841    0 1415 -283.08513 -233.84841  17.4%     -  891s
H    0     0                    -274.2518170 -233.84841  14.7%     -  895s
     0     0 -233.84841    0 1433 -274.25182 -233.84841  14.7%     -  906s
     0     0 -235.97411    0 1014 -274.25182 -235.97411  14.0%     - 1120s
     0     0 -237.16090    0 1313 -274.25182 -237.16090  13.5%     - 1502s
H    0     0                    -271.3073780 -237.16090  12.6%     - 1510s
     0     0 -237.16090    0 1374 -271.30738 -237.16090  12.6%     - 1529s
     0     0 -237.89701    0 1391 -271.30738 -237.89701  12.3%     - 1677s
     0     0 -238.26507    0 1409 -271.30738 -238.26507  12.2%     - 1748s
     0     0 -238.26507    0 1409 -271.30738 -238.26507  12.2%     - 1754s
     0     0 -240.64203    0 1396 -271.30738 -240.64203  11.3%     - 2355s
     0     0 -240.64203    0 1395 -271.30738 -240.64203  11.3%     - 2370s
     0     0 -242.29681    0 1408 -271.30738 -242.29681  10.7%     - 2637s
     0     0 -242.29681    0 1410 -271.30738 -242.29681  10.7%     - 2649s
     0     0 -243.76902    0 1431 -271.30738 -243.76902  10.2%     - 4816s
     0     0 -243.76902    0 1436 -271.30738 -243.76902  10.2%     - 4826s
     0     0 -246.58448    0 1436 -271.30738 -246.58448  9.11%     - 5805s
     0     0 -246.77628    0 1406 -271.30738 -246.77628  9.04%     - 5945s
     0     0 -246.77628    0 1425 -271.30738 -246.77628  9.04%     - 5952s
     0     0 -247.51239    0 1395 -271.30738 -247.51239  8.77%     - 7427s
     0     0 -247.51239    0 1419 -271.30738 -247.51239  8.77%     - 7461s
     0     0 -247.51239    0 1407 -271.30738 -247.51239  8.77%     - 7485s
     0     0 -247.51239    0 1412 -271.30738 -247.51239  8.77%     - 7520s
     0     0 -248.82103    0 1329 -271.30738 -248.82103  8.29%     - 10479s
     0     0 -248.98461    0 1366 -271.30738 -248.98461  8.23%     - 10509s
     0     0 -248.98461    0 1383 -271.30738 -248.98461  8.23%     - 10515s
     0     0 -248.98461    0 1439 -271.30738 -248.98461  8.23%     - 10535s
     0     0 -248.98461    0 1436 -271.30738 -248.98461  8.23%     - 10547s
     0     0 -249.47535    0 1415 -271.30738 -249.47535  8.05%     - 10573s
H    0     0                    -268.3629390 -249.47535  7.04%     - 10593s
     0     0 -250.02743    0 1421 -268.36294 -250.02743  6.83%     - 10630s
     0     0 -250.03619    0 1370 -268.36294 -250.03619  6.83%     - 10643s
     0     0 -250.03619    0 1422 -268.36294 -250.03619  6.83%     - 10649s
     0     0 -250.70220    0 1399 -268.36294 -250.70220  6.58%     - 10705s
     0     0 -251.92905    0 1419 -268.36294 -251.92905  6.12%     - 10808s
     0     0 -251.92905    0 1416 -268.36294 -251.92905  6.12%     - 10819s
     0     0 -252.91053    0 1393 -268.36294 -252.91053  5.76%     - 10879s
     0     0 -252.91053    0 1398 -268.36294 -252.91053  5.76%     - 10895s
     0     0 -252.91053    0 1246 -268.36294 -252.91053  5.76%     - 10918s
     0     0 -252.91053    0 1245 -268.36294 -252.91053  5.76%     - 10931s
     0     0 -252.91053    0 1244 -268.36294 -252.91053  5.76%     - 10948s
     0     0 -252.91053    0 1257 -268.36294 -252.91053  5.76%     - 10958s
     0     0 -252.91053    0 1165 -268.36294 -252.91053  5.76%     - 11796s
     0     0 -252.91053    0 1172 -268.36294 -252.91053  5.76%     - 11805s
     0     0 -252.91053    0 1198 -268.36294 -252.91053  5.76%     - 12477s
     0     0 -252.91053    0 1149 -268.36294 -252.91053  5.76%     - 13104s
     0     2 -252.91163    0 1148 -268.36294 -252.91163  5.76%     - 13557s
     1     3 -253.64074    1  837 -268.36294 -252.91802  5.76%  8883 13574s
     2     4 -255.60370    2  858 -268.36294 -252.91802  5.76%  5692 13588s
     3     5 -256.58518    2  778 -268.36294 -252.91802  5.76%  6118 13679s
     4     6 -258.05740    3  678 -268.36294 -252.91802  5.76%  4746 13687s
     5     5     cutoff    3      -268.36294 -252.91802  5.76%  5584 13784s
     6     6 -259.52962    4  578 -268.36294 -252.91802  5.76%  5427 13841s
     7     5     cutoff    4      -268.36294 -252.91802  5.76%  5994 13947s
     8     6 -260.51110    5  585 -268.36294 -252.91802  5.76%  5320 13971s
     9     7 -261.49258    6  581 -268.36294 -252.91802  5.76%  4753 13987s
    11     9 -262.47406    8  569 -268.36294 -252.91802  5.76%  3905 13990s
    12     8     cutoff    8      -268.36294 -252.91802  5.76%  3668 13995s
    14     8     cutoff    9      -268.36294 -252.91802  5.76%  3282 14005s
    16     8     cutoff   10      -268.36294 -252.91802  5.76%  3074 14025s
    19     9 -266.39998   12  401 -268.36294 -252.91802  5.76%  2613 14030s
    25     7     cutoff    1      -268.36294 -255.60370  4.75%  3169 14407s
    27     9 -256.58518    4  886 -268.36294 -255.60370  4.75%  3314 14632s
    28    10 -257.56666    5  898 -268.36294 -255.60370  4.75%  3405 14735s
    29    11 -265.74269    6 1041 -268.36294 -255.60370  4.75%  5352 16238s
    30    12 -258.05740    6  818 -268.36294 -255.60370  4.75%  5703 16585s
    31    13 -259.52962    7  748 -268.36294 -255.60370  4.75%  5708 16739s
    32    14 -259.52962    8  528 -268.36294 -255.60370  4.75%  5559 16838s
    33    15 -266.67291    8  904 -268.36294 -255.60370  4.75%  6771 17962s
    34    16 -261.00184    9  643 -268.36294 -255.60370  4.75%  7120 18395s
    35    17 -266.68984    9  924 -268.36294 -255.60370  4.75% 36694 63391s
    36    18 -262.47406   10  559 -268.36294 -255.60370  4.75% 36206 63828s
    37    17     cutoff   11      -268.36294 -255.60370  4.75% 35353 63898s
    38    18 -263.45554   11  539 -268.36294 -255.60370  4.75% 35167 64592s
    39    17     cutoff   12      -268.36294 -255.60370  4.75% 34876 65252s
    40    18 -264.24072   12  588 -268.36294 -255.60370  4.75% 34616 65878s
    41    19 -265.41850   13  567 -268.36294 -255.60370  4.75% 33812 65911s
    42    18     cutoff   14      -268.36294 -255.60370  4.75% 33203 66074s
    43    19 -265.41850   14  497 -268.36294 -255.60370  4.75% 32700 66321s
    44    20 -266.89072   15  455 -268.36294 -255.60370  4.75% 31989 66341s
    45    19     cutoff   15      -268.36294 -255.60370  4.75% 33211 68577s
    46    20 -266.89072   16  487 -268.36294 -255.60370  4.75% 32503 68583s
    47    21 -266.89072   17  408 -268.36294 -255.60370  4.75% 31813 68586s
    48    20     cutoff   17      -268.36294 -255.60370  4.75% 31799 69287s
    49    19     cutoff   18      -268.36294 -255.60370  4.75% 33138 72049s
    50    18     cutoff   18      -268.36294 -255.60370  4.75% 32992 72581s
    51    17     cutoff   16      -268.36294 -255.60370  4.75% 32657 72875s
    52    18 -257.07592    3 1027 -268.36294 -255.60370  4.75% 32205 73017s
    53    19 -258.54814    4  983 -268.36294 -255.60370  4.75% 31662 73090s
    54    20 -261.49258    4  902 -268.36294 -255.60370  4.75% 31632 73842s
    55    21 -262.47406    5  856 -268.36294 -255.60370  4.75% 31127 73927s
    56    22 -263.21017    6  838 -268.36294 -255.60370  4.75% 30611 74013s

Cutting planes:
  Gomory: 1
  MIR: 1
  Zero half: 185

Explored 57 nodes (2218808 simplex iterations) in 86400.76 seconds
Thread count was 1 (of 80 available processors)

Solution count 8: -268.363 -271.307 -274.252 ... -19403.9

Time limit reached
Best objective -2.683629390243e+02, best bound -2.556037034479e+02, gap 4.7545%
